(declare-const o241 (_ BitVec 16))

(declare-const o141 (_ BitVec 16))

(declare-const o04 (_ BitVec 16))

(declare-const o43 (_ BitVec 16))

(declare-const o33 (_ BitVec 16))

(declare-const o231 (_ BitVec 16))

(declare-const o131 (_ BitVec 16))

(declare-const o03 (_ BitVec 16))

(declare-const o42 (_ BitVec 16))

(declare-const o32 (_ BitVec 16))

(declare-const o221 (_ BitVec 16))

(declare-const o121 (_ BitVec 16))

(declare-const o02 (_ BitVec 16))

(declare-const o41 (_ BitVec 16))

(declare-const o31 (_ BitVec 16))

(declare-const o211 (_ BitVec 16))

(declare-const o111 (_ BitVec 16))

(declare-const o01 (_ BitVec 16))

(declare-const o4 (_ BitVec 16))

(declare-const o3 (_ BitVec 16))

(declare-const o2 (_ BitVec 16))

(declare-const o1 (_ BitVec 16))

(declare-const o0 (_ BitVec 16))

(declare-const tmp_w14 (_ BitVec 16))

(declare-const tmp_w13 (_ BitVec 16))

(declare-const tmp_w12 (_ BitVec 16))

(declare-const tmp_w11 (_ BitVec 16))

(declare-const tmp_w10 (_ BitVec 16))

(declare-const o440 (_ BitVec 16))

(declare-const o340 (_ BitVec 16))

(declare-const o240 (_ BitVec 16))

(declare-const o140 (_ BitVec 16))

(declare-const o040 (_ BitVec 16))

(declare-const o430 (_ BitVec 16))

(declare-const o330 (_ BitVec 16))

(declare-const o230 (_ BitVec 16))

(declare-const o130 (_ BitVec 16))

(declare-const o030 (_ BitVec 16))

(declare-const o420 (_ BitVec 16))

(declare-const o320 (_ BitVec 16))

(declare-const o220 (_ BitVec 16))

(declare-const o120 (_ BitVec 16))

(declare-const o020 (_ BitVec 16))

(declare-const o410 (_ BitVec 16))

(declare-const o310 (_ BitVec 16))

(declare-const o210 (_ BitVec 16))

(declare-const o110 (_ BitVec 16))

(declare-const o010 (_ BitVec 16))

(declare-const o40 (_ BitVec 16))

(declare-const o30 (_ BitVec 16))

(declare-const o25 (_ BitVec 16))

(declare-const o15 (_ BitVec 16))

(declare-const o00 (_ BitVec 16))

(declare-const tmp24 (_ BitVec 16))

(declare-const tmp23 (_ BitVec 16))

(declare-const tmp22 (_ BitVec 16))

(declare-const tmp21 (_ BitVec 16))

(declare-const tmp14 (_ BitVec 16))

(declare-const tmp13 (_ BitVec 16))

(declare-const tmp12 (_ BitVec 16))

(declare-const tmp11 (_ BitVec 16))

(declare-const f44 (_ BitVec 16))

(declare-const f29 (_ BitVec 16))

(declare-const f43 (_ BitVec 16))

(declare-const f28 (_ BitVec 16))

(declare-const f42 (_ BitVec 16))

(declare-const f27 (_ BitVec 16))

(declare-const f41 (_ BitVec 16))

(declare-const f26 (_ BitVec 16))

(declare-const f40 (_ BitVec 16))

(declare-const f25 (_ BitVec 16))

(declare-const f34 (_ BitVec 16))

(declare-const f19 (_ BitVec 16))

(declare-const f33 (_ BitVec 16))

(declare-const f18 (_ BitVec 16))

(declare-const f32 (_ BitVec 16))

(declare-const f17 (_ BitVec 16))

(declare-const f31 (_ BitVec 16))

(declare-const f16 (_ BitVec 16))

(declare-const f30 (_ BitVec 16))

(declare-const f15 (_ BitVec 16))

(declare-const f24 (_ BitVec 16))

(declare-const f23 (_ BitVec 16))

(declare-const f22 (_ BitVec 16))

(declare-const f21 (_ BitVec 16))

(declare-const f20 (_ BitVec 16))

(declare-const f14 (_ BitVec 16))

(declare-const f13 (_ BitVec 16))

(declare-const f12 (_ BitVec 16))

(declare-const f11 (_ BitVec 16))

(declare-const f10 (_ BitVec 16))

(assert (= f30 f15))

(assert (= f31 f16))

(assert (= f32 f17))

(assert (= f33 f18))

(assert (= f34 f19))

(assert (= f40 f25))

(assert (= f41 f26))

(assert (= f42 f27))

(assert (= f43 f28))

(assert (= f44 f29))

(assert (= tmp11 (bvmul f21 (_ bv19 16))))

(assert (= tmp12 (bvmul f22 (_ bv19 16))))

(assert (= tmp13 (bvmul f23 (_ bv19 16))))

(assert (= tmp14 (bvmul f24 (_ bv19 16))))

(assert (= tmp21 (bvmul f26 (_ bv19 16))))

(assert (= tmp22 (bvmul f27 (_ bv19 16))))

(assert (= tmp23 (bvmul f28 (_ bv19 16))))

(assert (= tmp24 (bvmul f29 (_ bv19 16))))

(assert (= o00 (bvmul f10 f20)))

(assert (= o15 (bvmul f10 f21)))

(assert (= o25 (bvmul f10 f22)))

(assert (= o30 (bvmul f10 f23)))

(assert (= o40 (bvmul f10 f24)))

(assert (= o010 (bvadd (bvmul f10 f20) (bvmul f11 (bvmul f24 (_ bv19 16))))))

(assert (= o110 (bvadd (bvmul f10 f21) (bvmul f11 f20))))

(assert (= o210 (bvadd (bvmul f10 f22) (bvmul f11 f21))))

(assert (= o310 (bvadd (bvmul f10 f23) (bvmul f11 f22))))

(assert (= o410 (bvadd (bvmul f10 f24) (bvmul f11 f23))))

(assert (= o020 (bvadd (bvadd (bvmul f10 f20) (bvmul f11 (bvmul f24 (_ bv19 16)))) (bvmul f12 (bvmul f23 (_ bv19 16))))))

(assert (= o120 (bvadd (bvadd (bvmul f10 f21) (bvmul f11 f20)) (bvmul f12 (bvmul f24 (_ bv19 16))))))

(assert (= o220 (bvadd (bvadd (bvmul f10 f22) (bvmul f11 f21)) (bvmul f12 f20))))

(assert (= o320 (bvadd (bvadd (bvmul f10 f23) (bvmul f11 f22)) (bvmul f12 f21))))

(assert (= o420 (bvadd (bvadd (bvmul f10 f24) (bvmul f11 f23)) (bvmul f12 f22))))

(assert (= o030 (bvadd (bvadd (bvadd (bvmul f10 f20) (bvmul f11 (bvmul f24 (_ bv19 16)))) (bvmul f12 (bvmul f23 (_ bv19 16)))) (bvmul f13 (bvmul f22 (_ bv19 16))))))

(assert (= o130 (bvadd (bvadd (bvadd (bvmul f10 f21) (bvmul f11 f20)) (bvmul f12 (bvmul f24 (_ bv19 16)))) (bvmul f13 (bvmul f23 (_ bv19 16))))))

(assert (= o230 (bvadd (bvadd (bvadd (bvmul f10 f22) (bvmul f11 f21)) (bvmul f12 f20)) (bvmul f13 (bvmul f24 (_ bv19 16))))))

(assert (= o330 (bvadd (bvadd (bvadd (bvmul f10 f23) (bvmul f11 f22)) (bvmul f12 f21)) (bvmul f13 f20))))

(assert (= o430 (bvadd (bvadd (bvadd (bvmul f10 f24) (bvmul f11 f23)) (bvmul f12 f22)) (bvmul f13 f21))))

(assert (= o040 (bvadd (bvadd (bvadd (bvadd (bvmul f10 f20) (bvmul f11 (bvmul f24 (_ bv19 16)))) (bvmul f12 (bvmul f23 (_ bv19 16)))) (bvmul f13 (bvmul f22 (_ bv19 16)))) (bvmul f14 (bvmul f21 (_ bv19 16))))))

(assert (= o140 (bvadd (bvadd (bvadd (bvadd (bvmul f10 f21) (bvmul f11 f20)) (bvmul f12 (bvmul f24 (_ bv19 16)))) (bvmul f13 (bvmul f23 (_ bv19 16)))) (bvmul f14 (bvmul f22 (_ bv19 16))))))

(assert (= o240 (bvadd (bvadd (bvadd (bvadd (bvmul f10 f22) (bvmul f11 f21)) (bvmul f12 f20)) (bvmul f13 (bvmul f24 (_ bv19 16)))) (bvmul f14 (bvmul f23 (_ bv19 16))))))

(assert (= o340 (bvadd (bvadd (bvadd (bvadd (bvmul f10 f23) (bvmul f11 f22)) (bvmul f12 f21)) (bvmul f13 f20)) (bvmul f14 (bvmul f24 (_ bv19 16))))))

(assert (= o440 (bvadd (bvadd (bvadd (bvadd (bvmul f10 f24) (bvmul f11 f23)) (bvmul f12 f22)) (bvmul f13 f21)) (bvmul f14 f20))))

(assert (= tmp_w10 (bvadd (bvadd (bvadd (bvadd (bvmul f10 f20) (bvmul f11 (bvmul f24 (_ bv19 16)))) (bvmul f12 (bvmul f23 (_ bv19 16)))) (bvmul f13 (bvmul f22 (_ bv19 16)))) (bvmul f14 (bvmul f21 (_ bv19 16))))))

(assert (= tmp_w11 (bvadd (bvadd (bvadd (bvadd (bvmul f10 f21) (bvmul f11 f20)) (bvmul f12 (bvmul f24 (_ bv19 16)))) (bvmul f13 (bvmul f23 (_ bv19 16)))) (bvmul f14 (bvmul f22 (_ bv19 16))))))

(assert (= tmp_w12 (bvadd (bvadd (bvadd (bvadd (bvmul f10 f22) (bvmul f11 f21)) (bvmul f12 f20)) (bvmul f13 (bvmul f24 (_ bv19 16)))) (bvmul f14 (bvmul f23 (_ bv19 16))))))

(assert (= tmp_w13 (bvadd (bvadd (bvadd (bvadd (bvmul f10 f23) (bvmul f11 f22)) (bvmul f12 f21)) (bvmul f13 f20)) (bvmul f14 (bvmul f24 (_ bv19 16))))))

(assert (= tmp_w14 (bvadd (bvadd (bvadd (bvadd (bvmul f10 f24) (bvmul f11 f23)) (bvmul f12 f22)) (bvmul f13 f21)) (bvmul f14 f20))))

(assert (= o0 (bvmul f15 f25)))

(assert (= o1 (bvmul f15 f26)))

(assert (= o2 (bvmul f15 f27)))

(assert (= o3 (bvmul f15 f28)))

(assert (= o4 (bvmul f15 f29)))

(assert (= o01 (bvadd (bvmul f15 f25) (bvmul f16 (bvmul f29 (_ bv19 16))))))

(assert (= o111 (bvadd (bvmul f15 f26) (bvmul f16 f25))))

(assert (= o211 (bvadd (bvmul f15 f27) (bvmul f16 f26))))

(assert (= o31 (bvadd (bvmul f15 f28) (bvmul f16 f27))))

(assert (= o41 (bvadd (bvmul f15 f29) (bvmul f16 f28))))

(assert (= o02 (bvadd (bvadd (bvmul f15 f25) (bvmul f16 (bvmul f29 (_ bv19 16)))) (bvmul f17 (bvmul f28 (_ bv19 16))))))

(assert (= o121 (bvadd (bvadd (bvmul f15 f26) (bvmul f16 f25)) (bvmul f17 (bvmul f29 (_ bv19 16))))))

(assert (= o221 (bvadd (bvadd (bvmul f15 f27) (bvmul f16 f26)) (bvmul f17 f25))))

(assert (= o32 (bvadd (bvadd (bvmul f15 f28) (bvmul f16 f27)) (bvmul f17 f26))))

(assert (= o42 (bvadd (bvadd (bvmul f15 f29) (bvmul f16 f28)) (bvmul f17 f27))))

(assert (= o03 (bvadd (bvadd (bvadd (bvmul f15 f25) (bvmul f16 (bvmul f29 (_ bv19 16)))) (bvmul f17 (bvmul f28 (_ bv19 16)))) (bvmul f18 (bvmul f27 (_ bv19 16))))))

(assert (= o131 (bvadd (bvadd (bvadd (bvmul f15 f26) (bvmul f16 f25)) (bvmul f17 (bvmul f29 (_ bv19 16)))) (bvmul f18 (bvmul f28 (_ bv19 16))))))

(assert (= o231 (bvadd (bvadd (bvadd (bvmul f15 f27) (bvmul f16 f26)) (bvmul f17 f25)) (bvmul f18 (bvmul f29 (_ bv19 16))))))

(assert (= o33 (bvadd (bvadd (bvadd (bvmul f15 f28) (bvmul f16 f27)) (bvmul f17 f26)) (bvmul f18 f25))))

(assert (= o43 (bvadd (bvadd (bvadd (bvmul f15 f29) (bvmul f16 f28)) (bvmul f17 f27)) (bvmul f18 f26))))

(assert (= o04 (bvadd (bvadd (bvadd (bvadd (bvmul f15 f25) (bvmul f16 (bvmul f29 (_ bv19 16)))) (bvmul f17 (bvmul f28 (_ bv19 16)))) (bvmul f18 (bvmul f27 (_ bv19 16)))) (bvmul f19 (bvmul f26 (_ bv19 16))))))

(assert (= o141 (bvadd (bvadd (bvadd (bvadd (bvmul f15 f26) (bvmul f16 f25)) (bvmul f17 (bvmul f29 (_ bv19 16)))) (bvmul f18 (bvmul f28 (_ bv19 16)))) (bvmul f19 (bvmul f27 (_ bv19 16))))))

(assert (= o241 (bvadd (bvadd (bvadd (bvadd (bvmul f15 f27) (bvmul f16 f26)) (bvmul f17 f25)) (bvmul f18 (bvmul f29 (_ bv19 16)))) (bvmul f19 (bvmul f28 (_ bv19 16))))))

(assert (not (= (_ bv0 16) (bvmul f29 (_ bv19 16)))))

(check-sat)
